Traveling Salesman Problem/TSP_generados/Aleatorio1621103305_9.tsp
NAME: Aleatorio1621103305_9.tsp
COMMENT: Randomly generated scenario
TYPE: TSP
DIMENSION: 9
EDGE_WEIGHT_TYPE: ATT
NODE_COORD_SECTION
1 16.31 45.71
2 21.74 23.24
3 0.47 38.38
4 32.97 18.8
5 27.86 23.08
6 22.98 39.09
7 41.39 45.19
8 14.24 24.65
9 27.58 28.81
