Traveling Salesman Problem/TSP_generados/Aleatorio1621103305_9.opt.tour
NAME: Aleatorio1621103305_9.opt.tour
COMMENT: Optimal solution for Aleatorio1621103305_9 (118.9038130813806)
TYPE: TOUR
DIMENSION: 9
TOUR_SECTION
1 3 8 2 5 4 9 7 6
-1
EOF
